words_hard_train/5930.qaiger
aag 92 16 0 1 76
2
4
8
12
14
18
24
28
48
50
54
58
62
66
70
74
184
6 2 4
10 6 8
16 13 14
20 16 18
22 10 20
26 22 25
30 27 29
32 12 4
34 32 14
36 35 25
38 37 8
40 23 39
42 31 41
44 40 29
46 43 45
52 49 51
56 52 55
60 56 59
64 61 62
68 65 67
72 68 71
76 72 75
78 73 74
80 77 79
82 50 18
84 83 53
86 51 19
88 87 2
90 88 48
92 84 91
94 93 13
96 53 54
98 97 57
100 95 98
102 92 12
104 101 103
106 13 5
108 107 33
110 57 58
112 111 61
114 108 113
116 105 115
118 109 112
120 117 119
122 33 15
124 123 35
126 60 63
128 127 65
130 124 128
132 121 131
134 125 129
136 133 135
138 64 66
140 139 69
142 34 24
144 143 37
146 141 145
148 137 147
150 140 144
152 149 151
154 36 9
156 155 39
158 69 70
160 159 73
162 156 161
164 153 163
166 157 160
168 165 167
170 80 168
172 47 171
174 26 28
176 173 175
178 81 169
180 176 179
182 174 178
184 181 183
i0 2 y1[0]
i1 2 y1[3]
i2 2 y1[6]
i3 2 y1[2]
i4 2 y1[4]
i5 2 y1[1]
i6 2 y1[5]
i7 2 y1[7]
i8 1 x2[0]
i9 1 x2[1]
i10 1 x2[2]
i11 1 x2[3]
i12 1 x2[4]
i13 1 x2[5]
i14 1 x2[6]
i15 1 x2[7]
o0 bv[0]
c
simplified
  <=
    add
      165
      2 y1
    subtract
      << 4
        1
      1 x2
