words_hard_train/5930.qaiger.qdimacs
p cnf 92 229
a 33 35 37 24 25 27 29 31 0
e 1 2 3 4 5 6 7 8 9 10 11 12 13 14 15 16 17 18 19 20 21 22 23 26 28 30 32 34 36 38 39 40 41 42 43 44 45 46 47 48 49 50 51 52 53 54 55 56 57 58 59 60 61 62 63 64 65 66 67 68 69 70 71 72 73 74 75 76 77 78 79 80 81 82 83 84 85 86 87 88 89 90 91 92 0
-1 -2 3 0
1 -3 0
2 -3 0
-3 -4 5 0
3 -5 0
4 -5 0
6 -7 8 0
-6 -8 0
7 -8 0
-8 -9 10 0
8 -10 0
9 -10 0
-5 -10 11 0
5 -11 0
10 -11 0
-11 12 13 0
11 -13 0
-12 -13 0
13 14 15 0
-13 -15 0
-14 -15 0
-6 -2 16 0
6 -16 0
2 -16 0
-16 -7 17 0
16 -17 0
7 -17 0
17 12 18 0
-17 -18 0
-12 -18 0
18 -4 19 0
-18 -19 0
4 -19 0
11 19 20 0
-11 -20 0
-19 -20 0
15 20 21 0
-15 -21 0
-20 -21 0
-20 14 22 0
20 -22 0
-14 -22 0
21 22 23 0
-21 -23 0
-22 -23 0
24 25 26 0
-24 -26 0
-25 -26 0
-26 27 28 0
26 -28 0
-27 -28 0
-28 29 30 0
28 -30 0
-29 -30 0
30 -31 32 0
-30 -32 0
31 -32 0
32 33 34 0
-32 -34 0
-33 -34 0
-34 35 36 0
34 -36 0
-35 -36 0
-36 37 38 0
36 -38 0
-37 -38 0
36 -37 39 0
-36 -39 0
37 -39 0
38 39 40 0
-38 -40 0
-39 -40 0
-25 -9 41 0
25 -41 0
9 -41 0
41 26 42 0
-41 -42 0
-26 -42 0
25 9 43 0
-25 -43 0
-9 -43 0
43 -1 44 0
-43 -44 0
1 -44 0
-44 -24 45 0
44 -45 0
24 -45 0
-42 45 46 0
42 -46 0
-45 -46 0
46 6 47 0
-46 -47 0
-6 -47 0
26 -27 48 0
-26 -48 0
27 -48 0
48 28 49 0
-48 -49 0
-28 -49 0
47 -49 50 0
-47 -50 0
49 -50 0
-46 -6 51 0
46 -51 0
6 -51 0
50 51 52 0
-50 -52 0
-51 -52 0
6 2 53 0
-6 -53 0
-2 -53 0
53 16 54 0
-53 -54 0
-16 -54 0
28 -29 55 0
-28 -55 0
29 -55 0
55 30 56 0
-55 -56 0
-30 -56 0
-54 56 57 0
54 -57 0
-56 -57 0
52 57 58 0
-52 -58 0
-57 -58 0
54 -56 59 0
-54 -59 0
56 -59 0
58 59 60 0
-58 -60 0
-59 -60 0
16 7 61 0
-16 -61 0
-7 -61 0
61 17 62 0
-61 -62 0
-17 -62 0
-30 31 63 0
30 -63 0
-31 -63 0
63 32 64 0
-63 -64 0
-32 -64 0
-62 -64 65 0
62 -65 0
64 -65 0
60 65 66 0
-60 -66 0
-65 -66 0
62 64 67 0
-62 -67 0
-64 -67 0
66 67 68 0
-66 -68 0
-67 -68 0
-32 -33 69 0
32 -69 0
33 -69 0
69 34 70 0
-69 -70 0
-34 -70 0
-17 -12 71 0
17 -71 0
12 -71 0
71 18 72 0
-71 -72 0
-18 -72 0
70 72 73 0
-70 -73 0
-72 -73 0
68 73 74 0
-68 -74 0
-73 -74 0
-70 -72 75 0
70 -75 0
72 -75 0
74 75 76 0
-74 -76 0
-75 -76 0
-18 4 77 0
18 -77 0
-4 -77 0
77 19 78 0
-77 -78 0
-19 -78 0
34 -35 79 0
-34 -79 0
35 -79 0
79 36 80 0
-79 -80 0
-36 -80 0
-78 80 81 0
78 -81 0
-80 -81 0
76 81 82 0
-76 -82 0
-81 -82 0
78 -80 83 0
-78 -83 0
80 -83 0
82 83 84 0
-82 -84 0
-83 -84 0
-40 -84 85 0
40 -85 0
84 -85 0
23 85 86 0
-23 -86 0
-85 -86 0
-13 -14 87 0
13 -87 0
14 -87 0
86 87 88 0
-86 -88 0
-87 -88 0
40 84 89 0
-40 -89 0
-84 -89 0
-88 89 90 0
88 -90 0
-89 -90 0
-87 -89 91 0
87 -91 0
89 -91 0
90 91 92 0
-90 -92 0
-91 -92 0
92 0
